10	6	3.5
10 20 15 2 5 10 5 5 4 1
20 1 1 10 1000
20 2 2 20 2000
20 30 3 10 3000
20 2 4 20 2000
2 30 5 10 1000
15 5 6 20 3000
 0 2 3 2 3 1
 2 0 5 5 4 1
 3 5 0 1 2 6
 2 5 4 0 4 6
 3 4 2 4 0 8
 1 1 6 6 8 0
 6  6 3 3 4 5 1 3 6 6 2 2 5 3 2 6 5 3 4 6 1 1 5 6 3 3 4 3 2 6 6 5 1 2 6 2 6 3 5 6 3 3 2 2 1 5 4 
 6  5 6 1 5 6 1 3 2 4 4 2 2 6 3 5 6 1 5 2 2 2 4 3 3 3 3 2 2 1 5 4 6 3 3 4 5 1 3 6 6 2 2 5 3
 6  6 1 1 5 6 3 3 4 3 2 6 6 5 6 5 3 4 6 2 4 6 6 3 6 1 2 3 3 2 2 1 5 4 5 3 5 1 4 2 3 6 3 5 2 6 4 1 1 5 2 4 5 5 3 3 6 3 5 6 3 1 4 4 6 3 6 5 3 
 6  5 3 5 1 4 2 3 6 3 5 2 5 6 1 5 6 1 3 2 4 4 2 1 2 6 6 1 1 5 6 3 3 4 3 2 6 6 5 5 1 4 4 5 2 3 6 3 5 4 6 4 1 1 5 2 4 5 5 3 3 6 3 
 6  6 5 3 4 6 2 4 6 6 3 6 1 2 5 1 4 4 5 2 3 6 3 5 4 1 4 3 5 6 3 1 4 4 6 3 6 5 3 5 6 1 5 6 1 3 2 4 4 2 2 2 4 3 3
 6  5 6 3 1 4 4 6 3 6 5 3 2 6 5 3 4 5 3 5 1 4 2 3 6 3 5 2 6 5 3 4 6 2 4 6 6 3 6 1 2 1 2 6 5 6 1 5 6 1 3 2 4 4 2  
 5  6 4 1 1 5 2 4 5 5 3 3 6 3 1 5 2 6 5 3 4 6 2 4 6 6 3 6 1 2 6 3 3 4 5 1 3 6 6 2 2 5 3 5 6 3 1 4 4 6 3 6 5 3
 6  2 2 4 3 3 5 3 5 1 4 2 3 6 3 5 2 6 5 3 4 6 2 4 6 6 3 6 1 2 5 6 3 1 4 4 6 3 6 5 3 5 1 4 4 5 2 3 6 3 5 4 5 6 1 5 6 1 3 2 4 4 2 
 5  1 2 6 2 6 5 3 4 5 6 1 5 6 1 3 2 4 4 2 5 1 4 4 5 2 3 6 3 5 4 2 2 4 3 3
 6  1 4 3 6 5 3 4 6 2 4 6 6 3 6 1 2 5 6 3 1 4 4 6 3 6 5 3 6 4 1 1 5 2 4 5 5 3 3 6 3 2 6 3 5 6 5 6 1 5 6 1 3 2 4 4 2  
